
Gurobi 10.0.3 (linux64, gurobi_cl) logging started Thu Nov  2 11:45:21 2023

Set parameter Username
Set parameter TimeLimit to value 3600
Set parameter LogFile to value "RCPSP_903.log"
Set parameter Threads to value 32
Academic license - for non-commercial use only - expires 2024-10-30
Using license file /home/jrivera6/gurobi-licenses/v1003/compute-0-35/gurobi.lic

Gurobi Optimizer version 10.0.3 build v10.0.3rc0 (linux64)
Copyright (c) 2023, Gurobi Optimization, LLC

Read MPS format model from file RCPSP_903.mps
Reading time = 0.03 seconds
RCPSP_903: 19662 rows, 7750 columns, 68337 nonzeros

CPU model: Intel(R) Xeon(R) Gold 6130 CPU @ 2.10GHz, instruction set [SSE2|AVX|AVX2|AVX512]
Thread count: 32 physical cores, 32 logical processors, using up to 32 threads

Optimize a model with 19662 rows, 7750 columns and 68337 nonzeros
Model fingerprint: 0x3b0881ac
Variable types: 62 continuous, 7688 integer (7688 binary)
Coefficient statistics:
  Matrix range     [1e+00, 3e+02]
  Objective range  [1e+00, 1e+00]
  Bounds range     [1e+00, 1e+00]
  RHS range        [1e+00, 3e+02]
Presolve removed 3972 rows and 881 columns (presolve time = 5s) ...
Presolve removed 9923 rows and 3854 columns
Presolve time: 5.47s
Presolved: 9739 rows, 3896 columns, 34428 nonzeros
Variable types: 61 continuous, 3835 integer (3835 binary)

Root simplex log...

Iteration    Objective       Primal Inf.    Dual Inf.      Time
       0    7.4000000e+01   2.737600e+04   0.000000e+00      6s
    1370    7.4000000e+01   0.000000e+00   0.000000e+00      6s

Root relaxation: objective 7.400000e+01, 1370 iterations, 0.03 seconds (0.01 work units)

    Nodes    |    Current Node    |     Objective Bounds      |     Work
 Expl Unexpl |  Obj  Depth IntInf | Incumbent    BestBd   Gap | It/Node Time

     0     0   74.00000    0    4          -   74.00000      -     -    5s
     0     0   74.00000    0   75          -   74.00000      -     -    7s
     0     0   74.00000    0   76          -   74.00000      -     -    9s
     0     0   74.00000    0    8          -   74.00000      -     -   10s
H    0     0                      74.0000000   74.00000  0.00%     -   10s
     0     0   74.00000    0    2   74.00000   74.00000  0.00%     -   10s

Cutting planes:
  Gomory: 1
  Implied bound: 20
  MIR: 87
  RLT: 29
  Relax-and-lift: 13

Explored 1 nodes (4699 simplex iterations) in 10.88 seconds (4.19 work units)
Thread count was 32 (of 32 available processors)

Solution count 1: 74 

Optimal solution found (tolerance 1.00e-04)
Best objective 7.400000000000e+01, best bound 7.400000000000e+01, gap 0.0000%

Wrote result file 'RCPSP_903.sol'

